language Essence 1.3

letting class be
        function(1 --> 1, 2 --> 6, 3 --> 8, 4 --> 3, 5 --> 1, 6 --> 7, 7 --> 3, 8 --> 10, 9 --> 4, 10 --> 2, 11 --> 9,
                 12 --> 5, 13 --> 10, 14 --> 2, 15 --> 4, 16 --> 5, 17 --> 2, 18 --> 2, 19 --> 5, 20 --> 8, 21 --> 1,
                 22 --> 3, 23 --> 10, 24 --> 1, 25 --> 7, 26 --> 4)
letting deck_length be 83
letting deck_width be 38
letting length be
        function(1 --> 1, 2 --> 1, 3 --> 1, 4 --> 1, 5 --> 2, 6 --> 1, 7 --> 1, 8 --> 1, 9 --> 1, 10 --> 1, 11 --> 1,
                 12 --> 2, 13 --> 1, 14 --> 1, 15 --> 1, 16 --> 1, 17 --> 37, 18 --> 1, 19 --> 1, 20 --> 1, 21 --> 1,
                 22 --> 1, 23 --> 1, 24 --> 1, 25 --> 1, 26 --> 2)
letting n_classes be 10
letting n_containers be 26
letting separation be function({2, 10} --> 40, {3, 4} --> 45, {4, 10} --> 19)
letting width be
        function(1 --> 4, 2 --> 17, 3 --> 27, 4 --> 25, 5 --> 3, 6 --> 12, 7 --> 2, 8 --> 16, 9 --> 4, 10 --> 15,
                 11 --> 4, 12 --> 8, 13 --> 21, 14 --> 19, 15 --> 1, 16 --> 1, 17 --> 38, 18 --> 32, 19 --> 1,
                 20 --> 32, 21 --> 16, 22 --> 32, 23 --> 12, 24 --> 24, 25 --> 22, 26 --> 15)
